Timesteps: 1
s UNSATISFIABLE
real 0.13
user 0.01
sys 0.00
Timesteps: 2
s UNSATISFIABLE
real 0.15
user 0.04
sys 0.00
Timesteps: 3
s UNSATISFIABLE
real 0.26
user 0.08
sys 0.00
Timesteps: 4
s UNSATISFIABLE
real 0.18
user 0.11
sys 0.00
Timesteps: 5
s UNSATISFIABLE
real 0.35
user 0.25
sys 0.01
Timesteps: 6
s UNSATISFIABLE
real 0.74
user 0.62
sys 0.01
Timesteps: 7
s UNSATISFIABLE
real 1.94
user 1.80
sys 0.01
Timesteps: 8
s UNSATISFIABLE
real 1.60
user 1.43
sys 0.01
Timesteps: 9
s UNSATISFIABLE
real 2.84
user 2.65
sys 0.01
Timesteps: 10
s UNSATISFIABLE
real 4.07
user 3.86
sys 0.01
Timesteps: 11
s UNSATISFIABLE
real 2.36
user 2.13
sys 0.02
Timesteps: 12
s UNSATISFIABLE
real 8.87
user 8.57
sys 0.02
Timesteps: 13
s UNSATISFIABLE
real 10.98
user 10.64
sys 0.04
Timesteps: 14
s UNSATISFIABLE
real 11.98
user 11.63
sys 0.04
Timesteps: 15
s UNSATISFIABLE
real 11.42
user 11.06
sys 0.04
Timesteps: 16
s UNSATISFIABLE
real 13.77
user 13.36
sys 0.06
Timesteps: 17
s UNSATISFIABLE
real 16.62
user 16.19
sys 0.05
Timesteps: 18
s UNSATISFIABLE
real 17.62
user 17.14
sys 0.07
Timesteps: 19
s UNSATISFIABLE
real 20.70
user 20.18
sys 0.08
Timesteps: 20
s UNSATISFIABLE
real 29.36
user 28.78
sys 0.10
Timesteps: 21
s UNSATISFIABLE
real 33.76
user 33.14
sys 0.10
Timesteps: 22
s UNSATISFIABLE
real 44.32
user 43.64
sys 0.11
Timesteps: 23
s UNSATISFIABLE
real 48.77
user 48.03
sys 0.15
Timesteps: 24
s UNSATISFIABLE
real 74.41
user 73.55
sys 0.15
Timesteps: 25
s UNSATISFIABLE
real 81.26
user 80.25
sys 0.18
Timesteps: 26
s UNSATISFIABLE
real 132.56
user 131.32
sys 0.25
Timesteps: 27
s UNSATISFIABLE
real 177.89
user 176.45
sys 0.27
Timesteps: 28
s UNSATISFIABLE
real 219.80
user 218.14
sys 0.32
Timesteps: 29
s UNSATISFIABLE
real 350.63
user 348.34
sys 0.45
Timesteps: 30
s UNSATISFIABLE
real 562.49
user 559.21
sys 0.62
Timesteps: 31
s UNSATISFIABLE
real 1221.50
user 1214.27
sys 1.09
Timesteps: 32
